peakDumbCharging = 11100; 
Machine = anon_enum(16); 
machineSpeed = [3700,3700,3700,3700,3700,3700,3700,3700,3700,3700,3700,3700,3700,3700,3700,3700]; 
machineLoad = [3700,3700,3700,3700,3700,3700,3700,3700,3700,3700,3700,3700,3700,3700,3700,3700]; 
Car = anon_enum(9); 
demandCar = [11720,4440,7360,3320,7720,9560,3160,5480,32201]; 
arrivalCar = [54,52,51,51,47,46,42,41,36]; 
departureCar = [59,55,56,54,56,51,43,43,55]; 
